experiment/data/hgs-res/Vrp-Set-Golden-n400/Vrp-Set-Golden-n400-hgs/0.hgs1.vrp
NAME : 0
COMMENT : CVRP Instance
TYPE : CVRP
DIMENSION : 400
EDGE_WEIGHT_TYPE : EUC_2D
CAPACITY : 1000
NODE_COORD_SECTION
1	0.0	-19.0
2	-1.0	-18.0
3	1.0	-18.0
4	-2.0	-17.0
5	0.0	-17.0
6	2.0	-17.0
7	-3.0	-16.0
8	-1.0	-16.0
9	1.0	-16.0
10	3.0	-16.0
11	-4.0	-15.0
12	-2.0	-15.0
13	0.0	-15.0
14	2.0	-15.0
15	4.0	-15.0
16	-5.0	-14.0
17	-3.0	-14.0
18	-1.0	-14.0
19	1.0	-14.0
20	3.0	-14.0
21	5.0	-14.0
22	-6.0	-13.0
23	-4.0	-13.0
24	-2.0	-13.0
25	0.0	-13.0
26	2.0	-13.0
27	4.0	-13.0
28	6.0	-13.0
29	-7.0	-12.0
30	-5.0	-12.0
31	-3.0	-12.0
32	-1.0	-12.0
33	1.0	-12.0
34	3.0	-12.0
35	5.0	-12.0
36	7.0	-12.0
37	-8.0	-11.0
38	-6.0	-11.0
39	-4.0	-11.0
40	-2.0	-11.0
41	0.0	-11.0
42	2.0	-11.0
43	4.0	-11.0
44	6.0	-11.0
45	8.0	-11.0
46	-9.0	-10.0
47	-7.0	-10.0
48	-5.0	-10.0
49	-3.0	-10.0
50	-1.0	-10.0
51	1.0	-10.0
52	3.0	-10.0
53	5.0	-10.0
54	7.0	-10.0
55	9.0	-10.0
56	-10.0	-9.0
57	-8.0	-9.0
58	-6.0	-9.0
59	-4.0	-9.0
60	-2.0	-9.0
61	0.0	-9.0
62	2.0	-9.0
63	4.0	-9.0
64	6.0	-9.0
65	8.0	-9.0
66	10.0	-9.0
67	-11.0	-8.0
68	-9.0	-8.0
69	-7.0	-8.0
70	-5.0	-8.0
71	-3.0	-8.0
72	-1.0	-8.0
73	1.0	-8.0
74	3.0	-8.0
75	5.0	-8.0
76	7.0	-8.0
77	9.0	-8.0
78	11.0	-8.0
79	-12.0	-7.0
80	-10.0	-7.0
81	-8.0	-7.0
82	-6.0	-7.0
83	-4.0	-7.0
84	-2.0	-7.0
85	0.0	-7.0
86	2.0	-7.0
87	4.0	-7.0
88	6.0	-7.0
89	8.0	-7.0
90	10.0	-7.0
91	12.0	-7.0
92	-13.0	-6.0
93	-11.0	-6.0
94	-9.0	-6.0
95	-7.0	-6.0
96	-5.0	-6.0
97	-3.0	-6.0
98	-1.0	-6.0
99	1.0	-6.0
100	3.0	-6.0
101	5.0	-6.0
102	7.0	-6.0
103	9.0	-6.0
104	11.0	-6.0
105	13.0	-6.0
106	-14.0	-5.0
107	-12.0	-5.0
108	-10.0	-5.0
109	-8.0	-5.0
110	-6.0	-5.0
111	-4.0	-5.0
112	-2.0	-5.0
113	0.0	-5.0
114	2.0	-5.0
115	4.0	-5.0
116	6.0	-5.0
117	8.0	-5.0
118	10.0	-5.0
119	12.0	-5.0
120	14.0	-5.0
121	-15.0	-4.0
122	-13.0	-4.0
123	-11.0	-4.0
124	-9.0	-4.0
125	-7.0	-4.0
126	-5.0	-4.0
127	-3.0	-4.0
128	-1.0	-4.0
129	1.0	-4.0
130	3.0	-4.0
131	5.0	-4.0
132	7.0	-4.0
133	9.0	-4.0
134	11.0	-4.0
135	13.0	-4.0
136	15.0	-4.0
137	-16.0	-3.0
138	-14.0	-3.0
139	-12.0	-3.0
140	-10.0	-3.0
141	-8.0	-3.0
142	-6.0	-3.0
143	-4.0	-3.0
144	-2.0	-3.0
145	0.0	-3.0
146	2.0	-3.0
147	4.0	-3.0
148	6.0	-3.0
149	8.0	-3.0
150	10.0	-3.0
151	12.0	-3.0
152	14.0	-3.0
153	16.0	-3.0
154	-17.0	-2.0
155	-15.0	-2.0
156	-13.0	-2.0
157	-11.0	-2.0
158	-9.0	-2.0
159	-7.0	-2.0
160	-5.0	-2.0
161	-3.0	-2.0
162	-1.0	-2.0
163	1.0	-2.0
164	3.0	-2.0
165	5.0	-2.0
166	7.0	-2.0
167	9.0	-2.0
168	11.0	-2.0
169	13.0	-2.0
170	15.0	-2.0
171	17.0	-2.0
172	-18.0	-1.0
173	-16.0	-1.0
174	-14.0	-1.0
175	-12.0	-1.0
176	-10.0	-1.0
177	-8.0	-1.0
178	-6.0	-1.0
179	-4.0	-1.0
180	-2.0	-1.0
181	0.0	-1.0
182	2.0	-1.0
183	4.0	-1.0
184	6.0	-1.0
185	8.0	-1.0
186	10.0	-1.0
187	12.0	-1.0
188	14.0	-1.0
189	16.0	-1.0
190	18.0	-1.0
191	-19.0	0.0
192	-17.0	0.0
193	-15.0	0.0
194	-13.0	0.0
195	-11.0	0.0
196	-9.0	0.0
197	-7.0	0.0
198	-5.0	0.0
199	-3.0	0.0
200	-1.0	0.0
201	1.0	0.0
202	3.0	0.0
203	5.0	0.0
204	7.0	0.0
205	9.0	0.0
206	11.0	0.0
207	13.0	0.0
208	15.0	0.0
209	17.0	0.0
210	19.0	0.0
211	-18.0	1.0
212	-16.0	1.0
213	-14.0	1.0
214	-12.0	1.0
215	-10.0	1.0
216	-8.0	1.0
217	-6.0	1.0
218	-4.0	1.0
219	-2.0	1.0
220	0.0	1.0
221	2.0	1.0
222	4.0	1.0
223	6.0	1.0
224	8.0	1.0
225	10.0	1.0
226	12.0	1.0
227	14.0	1.0
228	16.0	1.0
229	18.0	1.0
230	-17.0	2.0
231	-15.0	2.0
232	-13.0	2.0
233	-11.0	2.0
234	-9.0	2.0
235	-7.0	2.0
236	-5.0	2.0
237	-3.0	2.0
238	-1.0	2.0
239	1.0	2.0
240	3.0	2.0
241	5.0	2.0
242	7.0	2.0
243	9.0	2.0
244	11.0	2.0
245	13.0	2.0
246	15.0	2.0
247	17.0	2.0
248	-16.0	3.0
249	-14.0	3.0
250	-12.0	3.0
251	-10.0	3.0
252	-8.0	3.0
253	-6.0	3.0
254	-4.0	3.0
255	-2.0	3.0
256	0.0	3.0
257	2.0	3.0
258	4.0	3.0
259	6.0	3.0
260	8.0	3.0
261	10.0	3.0
262	12.0	3.0
263	14.0	3.0
264	16.0	3.0
265	-15.0	4.0
266	-13.0	4.0
267	-11.0	4.0
268	-9.0	4.0
269	-7.0	4.0
270	-5.0	4.0
271	-3.0	4.0
272	-1.0	4.0
273	1.0	4.0
274	3.0	4.0
275	5.0	4.0
276	7.0	4.0
277	9.0	4.0
278	11.0	4.0
279	13.0	4.0
280	15.0	4.0
281	-14.0	5.0
282	-12.0	5.0
283	-10.0	5.0
284	-8.0	5.0
285	-6.0	5.0
286	-4.0	5.0
287	-2.0	5.0
288	0.0	5.0
289	2.0	5.0
290	4.0	5.0
291	6.0	5.0
292	8.0	5.0
293	10.0	5.0
294	12.0	5.0
295	14.0	5.0
296	-13.0	6.0
297	-11.0	6.0
298	-9.0	6.0
299	-7.0	6.0
300	-5.0	6.0
301	-3.0	6.0
302	-1.0	6.0
303	1.0	6.0
304	3.0	6.0
305	5.0	6.0
306	7.0	6.0
307	9.0	6.0
308	11.0	6.0
309	13.0	6.0
310	-12.0	7.0
311	-10.0	7.0
312	-8.0	7.0
313	-6.0	7.0
314	-4.0	7.0
315	-2.0	7.0
316	0.0	7.0
317	2.0	7.0
318	4.0	7.0
319	6.0	7.0
320	8.0	7.0
321	10.0	7.0
322	12.0	7.0
323	-11.0	8.0
324	-9.0	8.0
325	-7.0	8.0
326	-5.0	8.0
327	-3.0	8.0
328	-1.0	8.0
329	1.0	8.0
330	3.0	8.0
331	5.0	8.0
332	7.0	8.0
333	9.0	8.0
334	11.0	8.0
335	-10.0	9.0
336	-8.0	9.0
337	-6.0	9.0
338	-4.0	9.0
339	-2.0	9.0
340	0.0	9.0
341	2.0	9.0
342	4.0	9.0
343	6.0	9.0
344	8.0	9.0
345	10.0	9.0
346	-9.0	10.0
347	-7.0	10.0
348	-5.0	10.0
349	-3.0	10.0
350	-1.0	10.0
351	1.0	10.0
352	3.0	10.0
353	5.0	10.0
354	7.0	10.0
355	9.0	10.0
356	-8.0	11.0
357	-6.0	11.0
358	-4.0	11.0
359	-2.0	11.0
360	0.0	11.0
361	2.0	11.0
362	4.0	11.0
363	6.0	11.0
364	8.0	11.0
365	-7.0	12.0
366	-5.0	12.0
367	-3.0	12.0
368	-1.0	12.0
369	1.0	12.0
370	3.0	12.0
371	5.0	12.0
372	7.0	12.0
373	-6.0	13.0
374	-4.0	13.0
375	-2.0	13.0
376	0.0	13.0
377	2.0	13.0
378	4.0	13.0
379	6.0	13.0
380	-5.0	14.0
381	-3.0	14.0
382	-1.0	14.0
383	1.0	14.0
384	3.0	14.0
385	5.0	14.0
386	-4.0	15.0
387	-2.0	15.0
388	0.0	15.0
389	2.0	15.0
390	4.0	15.0
391	-3.0	16.0
392	-1.0	16.0
393	1.0	16.0
394	3.0	16.0
395	-2.0	17.0
396	0.0	17.0
397	2.0	17.0
398	-1.0	18.0
399	1.0	18.0
400	0.0	19.0
DEMAND_SECTION
1	0
2	300
3	300
4	180
5	300
6	180
7	128
8	180
9	180
10	128
11	100
12	128
13	180
14	128
15	100
16	81
17	100
18	128
19	128
20	100
21	81
22	69
23	81
24	100
25	128
26	100
27	81
28	69
29	60
30	69
31	81
32	100
33	100
34	81
35	69
36	60
37	52
38	60
39	69
40	81
41	100
42	81
43	69
44	60
45	52
46	47
47	52
48	60
49	69
50	81
51	81
52	69
53	60
54	52
55	47
56	42
57	47
58	52
59	60
60	69
61	81
62	69
63	60
64	52
65	47
66	42
67	39
68	42
69	47
70	52
71	60
72	69
73	69
74	60
75	52
76	47
77	42
78	39
79	36
80	39
81	42
82	47
83	52
84	60
85	69
86	60
87	52
88	47
89	42
90	39
91	36
92	33
93	36
94	39
95	42
96	47
97	52
98	60
99	60
100	52
101	47
102	42
103	39
104	36
105	33
106	31
107	33
108	36
109	39
110	42
111	47
112	52
113	60
114	52
115	47
116	42
117	39
118	36
119	33
120	31
121	29
122	31
123	33
124	36
125	39
126	42
127	47
128	52
129	52
130	47
131	42
132	39
133	36
134	33
135	31
136	29
137	27
138	29
139	31
140	33
141	36
142	39
143	42
144	47
145	52
146	47
147	42
148	39
149	36
150	33
151	31
152	29
153	27
154	25
155	27
156	29
157	31
158	33
159	36
160	39
161	42
162	47
163	47
164	42
165	39
166	36
167	33
168	31
169	29
170	27
171	25
172	24
173	25
174	27
175	29
176	31
177	33
178	36
179	39
180	42
181	47
182	42
183	39
184	36
185	33
186	31
187	29
188	27
189	25
190	24
191	23
192	24
193	25
194	27
195	29
196	31
197	33
198	36
199	39
200	42
201	42
202	39
203	36
204	33
205	31
206	29
207	27
208	25
209	24
210	23
211	23
212	24
213	25
214	27
215	29
216	31
217	33
218	36
219	39
220	42
221	39
222	36
223	33
224	31
225	29
226	27
227	25
228	24
229	23
230	23
231	24
232	25
233	27
234	29
235	31
236	33
237	36
238	39
239	39
240	36
241	33
242	31
243	29
244	27
245	25
246	24
247	23
248	23
249	24
250	25
251	27
252	29
253	31
254	33
255	36
256	39
257	36
258	33
259	31
260	29
261	27
262	25
263	24
264	23
265	23
266	24
267	25
268	27
269	29
270	31
271	33
272	36
273	36
274	33
275	31
276	29
277	27
278	25
279	24
280	23
281	23
282	24
283	25
284	27
285	29
286	31
287	33
288	36
289	33
290	31
291	29
292	27
293	25
294	24
295	23
296	23
297	24
298	25
299	27
300	29
301	31
302	33
303	33
304	31
305	29
306	27
307	25
308	24
309	23
310	23
311	24
312	25
313	27
314	29
315	31
316	33
317	31
318	29
319	27
320	25
321	24
322	23
323	23
324	24
325	25
326	27
327	29
328	31
329	31
330	29
331	27
332	25
333	24
334	23
335	23
336	24
337	25
338	27
339	29
340	31
341	29
342	27
343	25
344	24
345	23
346	23
347	24
348	25
349	27
350	29
351	29
352	27
353	25
354	24
355	23
356	23
357	24
358	25
359	27
360	29
361	27
362	25
363	24
364	23
365	23
366	24
367	25
368	27
369	27
370	25
371	24
372	23
373	23
374	24
375	25
376	27
377	25
378	24
379	23
380	23
381	24
382	25
383	25
384	24
385	23
386	23
387	24
388	25
389	24
390	23
391	23
392	24
393	24
394	23
395	23
396	24
397	23
398	23
399	23
400	23
DEPOT_SECTION
1
-1
EOF
