experiment/data/hgs-res/Vrp-Set-Golden-n400/Vrp-Set-Golden-n400-hgs/0.hgs1.tour
Route #1: 5 9 14 20 27 35 34 26 19 13
Route #2: 43 53 64 76 89 103 118 134 151 169 187 207 188 208 227 245 226 206 186 168 150 133 117 102 88 75 63 52
Route #3: 44 54 65 77 90 104 119 135 152 170 189 209 228 246 263 279 262 244 225 205 185 167 149 132 116 101 87 74 42
Route #4: 73 114 130 147 165 183 203 223 242 260 277 293 307 321 308 294 278 261 243 224 204 184 166 148 131 115 100 86 62
Route #5: 2 8 4
Route #6: 85 99 129 146 164 222 241 259 276 292 306 320 333 344 354 363 353 343 332 319 305 291 275 258 240 202 182 163 113 98
Route #7: 25 33 41 51 61 72 84 71 60 50 32 18
Route #8: 112 144 180 219 255 287 302 315 328 339 349 359 368 376 369 360 350 340 329 316 303 288 272 256 238 200 162 128
Route #9: 126 198 236 270 285 299 312 325 336 346 356 365 373 380 386 391 395 392 388 383 377 370 361 351 341 330 317 304 289 273 239 220 181 145
Route #10: 96 217 235 253 269 284 298 311 324 335 345 355 364 372 379 385 390 394 397 399 398 396 393 389 384 378 371 362 352 342 331 318 290 274 257 221 201
Route #11: 97 127 161 199 237 271 301 314 327 338 348 358 367 375 382 387 381 374 366 357 347 337 326 313 300 286 254 218 179 143
Route #12: 12 24 31 40 49 39 30 23 17
Route #13: 59 83 111 160 178 197 216 234 252 268 283 297 310 323 334 322 309 295 281 296 282 267 251 233 215 196 177 159 142 110
Route #14: 48 70 82 95 125 141 158 176 195 214 232 250 266 249 265 280 264 248 231 213 194 175 157 140 124 109 81 69
Route #15: 58 94 108 123 139 156 174 193 212 230 247 229 210 190 171 191 211 192 173 155 138 122 107 93 80 68 57 47 38
Route #16: 3 6 10 15 22 16 11 7
Route #17: 29 37 46 56 67 79 92 106 121 137 154 172 153 136 120 105 91 78 66 55 45 36 28 21
Route #18: 1
Cost 914.784
